10 
300 
10.5 14.4 0 0
11.2 14.1 0 -65
18 15.9 -10 -125
18.3 13.3 10 -22
16.5 9.3 10 -16
15.4 11 10 -19
14.9 13.2 5 -19
16.3 13.3 -5 -64
16.4 17.8 5 -17
15 17.9 -5 -99
16.1 19.6 10 -29
15.7 20.6 -10 -73
13.2 20.1 -10 -122
14.3 15.3 5 -25
14 5.1 -10 -79
11.4 6.7 15 -12
8.3 5 -15 -73
7.9 9.8 10 -11
11.4 12 5 -22
11.2 17.6 -5 -124
10.1 18.7 -5 -123
11.7 20.3 -10 -128
10.2 22.1 -10 -115
9.7 23.8 -10 -88
10.1 26.4 15 -13
7.4 24 -15 -88
8.2 19.9 15 -26
8.7 17.7 10 -10
8.9 13.6 -10 -117
5.6 11.1 10 -15
4.9 18.9 10 -29
7.3 18.8 10 -11
